
Gurobi 7.5.2 (linux64, Matlab) logging started Mon Aug 27 11:03:50 2018


Gurobi 7.5.2 (linux64) logging started Mon Aug 27 11:03:50 2018


Gurobi 7.5.2 (linux64, Matlab) logging started Mon Aug 27 11:06:20 2018


Gurobi 7.5.2 (linux64) logging started Mon Aug 27 11:06:20 2018

